p ocr 1485 1433 2917
1432 2462
1432 2611
2 2462
3 2462
4 2462
5 2462
6 2462
7 2462
8 2462
9 2462
10 2462
11 2462
12 2462
13 2462
14 2462
15 2462
16 2462
17 2462
18 2462
19 2462
20 2462
21 2462
22 2462
23 2462
24 2462
25 2462
26 2462
27 2462
28 2462
29 2462
30 2462
31 2462
32 2462
33 2462
34 2462
35 2462
36 2462
37 2462
38 2462
39 2462
40 2462
41 2462
42 2462
43 2462
44 2462
45 2462
46 2462
47 2462
48 2462
49 2462
50 2462
51 2462
52 2462
53 2462
54 2462
55 2462
56 2462
57 2462
58 2462
59 2462
60 2462
61 2462
62 2462
63 2462
64 2462
65 2462
66 2462
67 2462
68 2462
69 2462
70 2462
71 2462
72 2462
73 2462
74 2462
75 2462
76 2462
77 2462
78 2462
79 2462
80 2462
81 2462
82 2462
83 2462
84 2462
85 2462
86 2462
87 2462
88 2462
89 2462
90 2462
91 2462
92 2462
93 2462
94 2462
95 2462
96 2462
97 2462
98 2462
99 2462
100 2462
101 2462
102 2462
103 2462
104 2462
105 2462
106 2462
107 2462
108 2462
109 2462
110 2462
111 2462
112 2462
113 2462
114 2462
115 2462
116 2462
117 2462
118 2462
119 2462
120 2462
121 2462
122 2462
123 2462
124 2462
125 2462
126 2462
127 2462
128 2462
129 2462
130 2462
131 2462
132 2462
133 2462
134 2462
135 2462
136 2462
137 2462
138 2462
139 2462
140 2462
141 2462
142 2462
143 2462
144 2462
145 2462
146 2462
147 2462
148 2462
149 2462
150 2462
151 2462
152 2462
153 2462
154 2462
155 2462
156 2462
157 2462
158 2462
159 2462
160 2462
161 2462
162 2462
163 2462
164 2462
165 2462
166 2462
167 2462
168 2462
169 2462
170 2462
171 2462
172 2462
173 2462
174 2462
175 2462
176 2462
177 2462
178 2462
179 2462
180 2462
181 2462
182 2462
183 2462
184 2462
185 2462
186 2462
187 2462
188 2462
189 2462
190 2462
191 2462
192 2462
193 2462
194 2462
195 2462
196 2462
197 2462
198 2462
199 2462
200 2462
201 2462
202 2462
203 2462
204 2462
205 2462
206 2462
207 2462
208 2462
209 2462
210 2462
211 2462
212 2462
213 2462
214 2462
215 2462
216 2462
217 2462
218 2462
219 2462
220 2462
221 2462
222 2462
223 2462
224 2462
225 2462
226 2462
227 2462
228 2462
229 2462
230 2462
231 2462
232 2462
233 2462
234 2462
235 2462
236 2462
237 2462
238 2462
239 2462
240 2462
241 2462
242 2462
243 2462
244 2462
245 2462
246 2462
247 2462
248 2462
249 2462
250 2462
251 2462
252 2462
253 2462
254 2462
255 2462
256 2462
257 2462
258 2462
259 2462
260 2462
261 2462
262 2462
263 2462
264 2462
265 2462
266 2462
267 2462
268 2462
269 2462
270 2462
271 2462
272 2462
273 2462
274 2462
275 2462
276 2462
277 2462
278 2462
279 2462
280 2462
281 2462
282 2462
283 2462
284 2462
285 2462
286 2462
287 2462
288 2462
289 2462
290 2462
291 2462
292 2462
293 2462
294 2462
295 2462
296 2462
297 2462
298 2462
299 2462
300 2462
301 2462
302 2462
303 2462
304 2462
305 2462
306 2462
307 2462
308 2462
309 2462
310 2462
311 2462
312 2462
313 2462
314 2462
315 2462
316 2462
317 2462
318 2462
319 2462
320 2462
321 2462
322 2462
323 2462
324 2462
325 2462
326 2462
327 2462
328 2462
329 2462
330 2462
331 2462
332 2462
333 2462
334 2462
335 2462
336 2462
337 2462
338 2462
339 2462
340 2462
341 2462
342 2462
343 2462
344 2462
345 2462
346 2462
347 2462
348 2462
349 2462
350 2462
351 2462
352 2462
353 2462
354 2462
355 2462
356 2462
357 2462
358 2462
359 2462
360 2462
361 2462
362 2462
363 2462
364 2462
365 2462
366 2462
367 2462
368 2462
369 2462
370 2462
371 2462
372 2462
373 2462
374 2462
375 2462
376 2462
377 2462
378 2462
379 2462
380 2462
381 2462
382 2462
383 2462
384 2462
385 2462
386 2462
387 2462
388 2462
389 2462
390 2462
391 2462
392 2462
393 2462
394 2462
395 2462
396 2462
397 2462
398 2462
399 2462
400 2462
401 2462
402 2462
403 2462
404 2462
405 2462
406 2462
407 2462
408 2462
409 2462
410 2462
411 2462
412 2462
413 2462
414 2462
415 2462
416 2462
417 2462
418 2462
419 2462
420 2462
421 2462
422 2462
423 2462
424 2462
425 2462
426 2462
427 2462
428 2462
429 2462
430 2462
431 2462
432 2462
433 2462
434 2462
435 2462
436 2462
437 2462
438 2462
439 2462
440 2462
441 2462
442 2462
443 2462
444 2462
445 2462
446 2462
447 2462
448 2462
449 2462
450 2462
451 2462
452 2462
453 2462
454 2462
455 2462
456 2462
457 2462
458 2462
459 2462
460 2462
461 2462
462 2462
463 2462
464 2462
465 2462
466 2462
467 2462
468 2462
469 2462
470 2462
471 2462
472 2462
473 2462
474 2462
475 2462
476 2462
477 2462
478 2462
479 2462
480 2462
481 2462
482 2462
483 2462
484 2462
485 2462
486 2462
487 2462
488 2462
489 2462
490 2462
491 2462
492 2462
493 2462
494 2462
495 2462
496 2462
497 2462
498 2462
499 2462
500 2462
501 2462
502 2462
503 2462
504 2462
505 2462
506 2462
507 2462
508 2462
509 2462
510 2462
511 2462
512 2462
513 2462
514 2462
515 2462
516 2462
517 2462
518 2462
519 2462
520 2462
521 2462
522 2462
523 2462
524 2462
525 2462
526 2462
527 2462
528 2462
529 2462
530 2462
531 2462
532 2462
533 2462
534 2462
535 2462
536 2462
537 2462
538 2462
539 2462
540 2462
541 2462
542 2462
543 2462
544 2462
545 2462
546 2462
547 2462
548 2462
549 2462
550 2462
551 2462
552 2462
553 2462
554 2462
555 2462
556 2462
557 2462
558 2462
559 2462
560 2462
561 2462
562 2462
563 2462
564 2462
565 2462
566 2462
567 2462
568 2462
569 2462
570 2462
571 2462
572 2462
573 2462
574 2462
575 2462
576 2462
577 2462
578 2462
579 2462
580 2462
581 2462
582 2462
583 2462
584 2462
585 2462
586 2462
587 2462
588 2462
589 2462
590 2462
591 2462
592 2462
593 2462
594 2462
595 2462
596 2462
597 2462
598 2462
599 2462
600 2462
601 2462
602 2462
603 2462
604 2462
605 2462
606 2462
607 2462
608 2462
609 2462
610 2462
611 2462
612 2462
613 2462
614 2462
615 2462
616 2462
617 2462
618 2462
619 2462
620 2462
621 2462
622 2462
623 2462
624 2462
625 2462
626 2462
627 2462
628 2462
629 2462
630 2462
631 2462
632 2462
633 2462
634 2462
635 2462
636 2462
637 2462
638 2462
639 2462
640 2462
641 2462
642 2462
643 2462
644 2462
645 2462
646 2462
647 2462
648 2462
649 2462
650 2462
651 2462
652 2462
653 2462
654 2462
655 2462
656 2462
657 2462
658 2462
659 2462
660 2462
661 2462
662 2462
663 2462
664 2462
665 2462
666 2462
667 2462
668 2462
669 2462
670 2462
671 2462
672 2462
673 2462
674 2462
675 2462
676 2462
677 2462
678 2462
679 2462
680 2462
681 2462
682 2462
683 2462
684 2462
685 2462
686 2462
687 2462
688 2462
689 2462
690 2462
691 2462
692 2462
693 2462
694 2462
695 2462
696 2462
697 2462
698 2462
699 2462
700 2462
701 2462
702 2462
703 2462
704 2462
705 2462
706 2462
707 2462
708 2462
709 2462
710 2462
711 2462
712 2462
713 2462
714 2462
715 2462
716 2462
717 2462
718 2462
719 2462
720 2462
721 2462
722 2462
723 2462
724 2462
725 2462
726 2462
727 2462
728 2462
729 2462
730 2462
731 2462
732 2462
733 2462
734 2462
735 2462
736 2462
737 2462
738 2462
739 2462
740 2462
741 2462
742 2462
743 2462
744 2462
745 2462
746 2462
747 2462
748 2462
749 2462
750 2462
751 2462
752 2462
753 2462
754 2462
755 2462
756 2462
757 2462
758 2462
759 2462
760 2462
761 2462
762 2462
763 2462
764 2462
765 2462
766 2462
767 2462
768 2462
769 2462
770 2462
771 2462
772 2462
773 2462
774 2462
775 2462
776 2462
777 2462
778 2462
779 2462
780 2462
781 2462
782 2462
783 2462
784 2462
785 2462
786 2462
787 2462
788 2462
789 2462
790 2462
791 2462
792 2462
793 2462
794 2462
795 2462
796 2462
797 2462
798 2462
799 2462
800 2462
801 2462
802 2462
803 2462
804 2462
805 2462
806 2462
807 2462
808 2462
809 2462
810 2462
811 2462
812 2462
813 2462
814 2462
815 2462
816 2462
817 2462
818 2462
819 2462
820 2462
821 2462
822 2462
823 2462
824 2462
825 2462
826 2462
827 2462
828 2462
829 2462
830 2462
831 2462
832 2462
833 2462
834 2462
835 2462
836 2462
837 2462
838 2462
839 2462
840 2462
841 2462
842 2462
843 2462
844 2462
845 2462
846 2462
847 2462
848 2462
849 2462
850 2462
851 2462
852 2462
853 2462
854 2462
855 2462
856 2462
857 2462
858 2462
859 2462
860 2462
861 2462
862 2462
863 2462
864 2462
865 2462
866 2462
867 2462
868 2462
869 2462
870 2462
871 2462
872 2462
873 2462
874 2462
875 2462
876 2462
877 2462
878 2462
879 2462
880 2462
881 2462
882 2462
883 2462
884 2462
885 2462
886 2462
887 2462
888 2462
889 2462
890 2462
891 2462
892 2462
893 2462
894 2462
895 2462
896 2462
897 2462
898 2462
899 2462
900 2462
901 2462
902 2462
903 2462
904 2462
905 2462
906 2462
907 2462
908 2462
909 2462
910 2462
911 2462
912 2462
913 2462
914 2462
915 2462
916 2462
917 2462
918 2462
919 2462
920 2462
921 2462
922 2462
923 2462
924 2462
925 2462
926 2462
927 2462
928 2462
929 2462
930 2462
931 2462
932 2462
933 2462
934 2462
935 2462
936 2462
937 2462
938 2462
939 2462
940 2462
941 2462
942 2462
943 2462
944 2462
945 2462
946 2462
947 2462
948 2462
949 2462
950 2462
951 2462
952 2462
953 2462
954 2462
955 2462
956 2462
957 2462
958 2462
959 2462
960 2462
961 2462
962 2462
963 2462
964 2462
965 2462
966 2462
967 2462
968 2462
969 2462
970 2462
971 2462
972 2462
973 2462
974 2462
975 2462
976 2462
977 2462
978 2462
979 2462
980 2462
981 2462
982 2462
983 2462
984 2462
985 2462
986 2462
987 2462
988 2462
989 2462
990 2462
991 2462
992 2462
993 2462
994 2462
995 2462
996 2462
997 2462
998 2462
999 2462
1000 2462
1001 2462
1002 2462
1003 2462
1004 2462
1005 2462
1006 2462
1007 2462
1008 2462
1009 2462
1010 2462
1011 2462
1012 2462
1013 2462
1014 2462
1015 2462
1016 2462
1017 2462
1018 2462
1019 2462
1020 2462
1021 2462
1022 2462
1023 2462
1024 2462
1025 2462
1026 2462
1027 2462
1028 2462
1029 2462
1030 2462
1031 2462
1032 2462
1033 2462
1034 2462
1035 2462
1036 2462
1037 2462
1038 2462
1039 2462
1040 2462
1041 2462
1042 2462
1043 2462
1044 2462
1045 2462
1046 2462
1047 2462
1048 2462
1049 2462
1050 2462
1051 2462
1052 2462
1053 2462
1054 2462
1055 2462
1056 2462
1057 2462
1058 2462
1059 2462
1060 2462
1061 2462
1062 2462
1063 2462
1064 2462
1065 2462
1066 2462
1067 2462
1068 2462
1069 2462
1070 2462
1071 2462
1072 2462
1073 2462
1074 2462
1075 2462
1076 2462
1077 2462
1078 2462
1079 2462
1080 2462
1081 2462
1082 2462
1083 2462
1084 2462
1085 2462
1086 2462
1087 2462
1088 2462
1089 2462
1090 2462
1091 2462
1092 2462
1093 2462
1094 2462
1095 2462
1096 2462
1097 2462
1098 2462
1099 2462
1100 2462
1101 2462
1102 2462
1103 2462
1104 2462
1105 2462
1106 2462
1107 2462
1108 2462
1109 2462
1110 2462
1111 2462
1112 2462
1113 2462
1114 2462
1115 2462
1116 2462
1117 2462
1118 2462
1119 2462
1120 2462
1121 2462
1122 2462
1123 2462
1124 2462
1125 2462
1126 2462
1127 2462
1128 2462
1129 2462
1130 2462
1131 2462
1132 2462
1133 2462
1134 2462
1135 2462
1136 2462
1137 2462
1138 2462
1139 2462
1140 2462
1141 2462
1142 2462
1143 2462
1144 2462
1145 2462
1146 2462
1147 2462
1148 2462
1149 2462
1150 2462
1151 2462
1152 2462
1153 2462
1154 2462
1155 2462
1156 2462
1157 2462
1158 2462
1159 2462
1160 2462
1161 2462
1162 2462
1163 2462
1164 2462
1165 2462
1166 2462
1167 2462
1168 2462
1169 2462
1170 2462
1171 2462
1172 2462
1173 2462
1174 2462
1175 2462
1176 2462
1177 2462
1178 2462
1179 2462
1180 2462
1181 2462
1182 2462
1183 2462
1184 2462
1185 2462
1186 2462
1187 2462
1188 2462
1189 2462
1190 2462
1191 2462
1192 2462
1193 2462
1194 2462
1195 2462
1196 2462
1197 2462
1198 2462
1199 2462
1200 2462
1201 2462
1202 2462
1203 2462
1204 2462
1205 2462
1206 2462
1207 2462
1208 2462
1209 2462
1210 2462
1211 2462
1212 2462
1213 2462
1214 2462
1215 2462
1216 2462
1217 2462
1218 2462
1219 2462
1220 2462
1221 2462
1222 2462
1223 2462
1224 2462
1225 2462
1226 2462
1227 2462
1228 2462
1229 2462
1230 2462
1231 2462
1232 2462
1233 2462
1234 2462
1235 2462
1236 2462
1237 2462
1238 2462
1239 2462
1240 2462
1241 2462
1242 2462
1243 2462
1244 2462
1245 2462
1246 2462
1247 2462
1248 2462
1249 2462
1250 2462
1251 2462
1252 2462
1253 2462
1254 2462
1255 2462
1256 2462
1257 2462
1258 2462
1259 2462
1260 2462
1261 2462
1262 2462
1263 2462
1264 2462
1265 2462
1266 2462
1267 2462
1268 2462
1269 2462
1270 2462
1271 2462
1272 2462
1273 2462
1274 2462
1275 2462
1276 2462
1277 2462
1278 2462
1279 2462
1280 2462
1281 2462
1282 2462
1283 2462
1284 2462
1285 2462
1286 2462
1287 2462
1288 2462
1289 2462
1290 2462
1291 2462
1292 2462
1293 2462
1294 2462
1295 2462
1296 2462
1297 2462
1298 2462
1299 2462
1300 2462
1301 2462
1302 2462
1303 2462
1304 2462
1305 2462
1306 2462
1307 2462
1308 2462
1309 2462
1310 2462
1311 2462
1312 2462
1313 2462
1314 2462
1315 2462
1316 2462
1317 2462
1318 2462
1319 2462
1320 2462
1321 2462
1322 2462
1323 2462
1324 2462
1325 2462
1326 2462
1327 2462
1328 2462
1329 2462
1330 2462
1331 2462
1332 2462
1333 2462
1334 2462
1335 2462
1336 2462
1337 2462
1338 2462
1339 2462
1340 2462
1341 2462
1342 2462
1343 2462
1344 2462
1345 2462
1346 2462
1347 2462
1348 2462
1349 2462
1350 2462
1351 2462
1352 2462
1353 2462
1354 2462
1355 2462
1356 2462
1357 2462
1358 2462
1359 2462
1360 2462
1361 2462
1362 2462
1363 2462
1364 2462
1365 2462
1366 2462
1367 2462
1368 2462
1369 2462
1370 2462
1371 2462
1372 2462
1373 2462
1374 2462
1375 2462
1376 2462
1377 2462
1378 2462
1379 2462
1380 2462
1381 2462
1382 2462
1383 2462
1384 2462
1385 2462
1386 2462
1387 2462
1388 2462
1389 2462
1390 2462
1391 2462
1392 2462
1393 2462
1394 2462
1395 2462
1396 2462
1397 2462
1398 2462
1399 2462
1400 2462
1401 2462
1402 2462
1403 2462
1404 2462
1405 2462
1406 2462
1407 2462
1408 2462
1409 2462
1410 2462
1411 2462
1412 2462
1413 2462
1414 2462
1415 2462
1416 2462
1417 2462
1418 2462
1419 2462
1420 2462
1421 2462
1422 2462
1423 2462
1424 2462
1425 2462
1426 2462
1427 2462
1428 2462
1429 2462
1430 2462
1431 2462
1 2464
1 2612
1 1486
1 1487
1 1488
1 1489
1 1490
1 1491
1 1492
1 1493
1 1494
1 1495
1 1496
1 1497
1 1498
1 1499
1 1500
1 1501
1 1502
1 1503
1 1504
1 1505
1 1506
1 1507
1 1508
1 1509
1 1510
1 1511
1 1512
1 1513
1 1514
1 1515
1 1516
1 1517
1 1518
1 1519
1 1520
1 1521
1 1522
1 1523
1 1524
1 1525
1 1526
1 1527
1 1528
1 1529
1 1530
1 1531
1 1532
1 1533
1 1534
1 1535
1 1536
1 1537
1 1538
1 1539
1 1540
1 1541
1 1542
1 1543
1 1544
1 1545
1 1546
1 1547
1 1548
1 1549
1 1550
1 1551
1 1552
1 1553
1 1554
1 1555
1 1556
1 1557
1 1558
1 1559
1 1560
1 1561
1 1562
1 1563
1 1564
1 1565
1 1566
1 1567
1 1568
1 1569
1 1570
1 1571
1 1572
1 1573
1 1574
1 1575
1 1576
1 1577
1 1578
1 1579
1 1580
1 1581
1 1582
1 1583
1 1584
1 1585
1 1586
1 1587
1 1588
1 1589
1 1590
1 1591
1 1592
1 1593
1 1594
1 1595
1 1596
1 1597
1 1598
1 1599
1 1600
1 1601
1 1602
1 1603
1 1604
1 1605
1 1606
1 1607
1 1608
1 1609
1 1610
1 1611
1 1612
1 1613
1 1614
1 1615
1 1616
1 1617
1 1618
1 1619
1 1620
1 1621
1 1622
1 1623
1 1624
1 1625
1 1626
1 1627
1 1628
1 1629
1 1630
1 1631
1 1632
1 1633
1 1634
1 1635
1 1636
1 1637
1 1638
1 1639
1 1640
1 1641
1 1642
1 1643
1 1644
1 1645
1 1646
1 1647
1 1648
1 1649
1 1650
1 1651
1 1652
1 1653
1 1654
1 1655
1 1656
1 1657
1 1658
1 1659
1 1660
1 1661
1 1662
1 1663
1 1664
1 1665
1 1666
1 1667
1 1668
1 1669
1 1670
1 1671
1 1672
1 1673
1 1674
1 1675
1 1676
1 1677
1 1678
1 1679
1 1680
1 1681
1 1682
1 1683
1 1684
1 1685
1 1686
1 1687
1 1688
1 1689
1 1690
1 1691
1 1692
1 1693
1 1694
1 1695
1 1696
1 1697
1 1698
1 1699
1 1700
1 1701
1 1702
1 1703
1 1704
1 1705
1 1706
1 1707
1 1708
1 1709
1 1710
1 1711
1 1712
1 1713
1 1714
1 1715
1 1716
1 1717
1 1718
1 1719
1 1720
1 1721
1 1722
1 1723
1 1724
1 1725
1 1726
1 1727
1 1728
1 1729
1 1730
1 1731
1 1732
1 1733
1 1734
1 1735
1 1736
1 1737
1 1738
1 1739
1 1740
1 1741
1 1742
1 1743
1 1744
1 1745
1 1746
1 1747
1 1748
1 1749
1 1750
1 1751
1 1752
1 1753
1 1754
1 1755
1 1756
1 1757
1 1758
1 1759
1 1760
1 1761
1 1762
1 1763
1 1764
1 1765
1 1766
1 1767
1 1768
1 1769
1 1770
1 1771
1 1772
1 1773
1 1774
1 1775
1 1776
1 1777
1 1778
1 1779
1 1780
1 1781
1 1782
1 1783
1 1784
1 1785
1 1786
1 1787
1 1788
1 1789
1 1790
1 1791
1 1792
1 1793
1 1794
1 1795
1 1796
1 1797
1 1798
1 1799
1 1800
1 1801
1 1802
1 1803
1 1804
1 1805
1 1806
1 1807
1 1808
1 1809
1 1810
1 1811
1 1812
1 1813
1 1814
1 1815
1 1816
1 1817
1 1818
1 1819
1 1820
1 1821
1 1822
1 1823
1 1824
1 1825
1 1826
1 1827
1 1828
1 1829
1 1830
1 1831
1 1832
1 1833
1 1834
1 1835
1 1836
1 1837
1 1838
1 1839
1 1840
1 1841
1 1842
1 1843
1 1844
1 1845
1 1846
1 1847
1 1848
1 1849
1 1850
1 1851
1 1852
1 1853
1 1854
1 1855
1 1856
1 1857
1 1858
1 1859
1 1860
1 1861
1 1862
1 1863
1 1864
1 1865
1 1866
1 1867
1 1868
1 1869
1 1870
1 1871
1 1872
1 1873
1 1874
1 1875
1 1876
1 1877
1 1878
1 1879
1 1880
1 1881
1 1882
1 1883
1 1884
1 1885
1 1886
1 1887
1 1888
1 1889
1 1890
1 1891
1 1892
1 1893
1 1894
1 1895
1 1896
1 1897
1 1898
1 1899
1 1900
1 1901
1 1902
1 1903
1 1904
1 1905
1 1906
1 1907
1 1908
1 1909
1 1910
1 1911
1 1912
1 1913
1 1914
1 1915
1 1916
1 1917
1 1918
1 1919
1 1920
1 1921
1 1922
1 1923
1 1924
1 1925
1 1926
1 1927
1 1928
1 1929
1 1930
1 1931
1 1932
1 1933
1 1934
1 1935
1 1936
1 1937
1 1938
1 1939
1 1940
1 1941
1 1942
1 1943
1 1944
1 1945
1 1946
1 1947
1 1948
1 1949
1 1950
1 1951
1 1952
1 1953
1 1954
1 1955
1 1956
1 1957
1 1958
1 1959
1 1960
1 1961
1 1962
1 1963
1 1964
1 1965
1 1966
1 1967
1 1968
1 1969
1 1970
1 1971
1 1972
1 1973
1 1974
1 1975
1 1976
1 1977
1 1978
1 1979
1 1980
1 1981
1 1982
1 1983
1 1984
1 1985
1 1986
1 1987
1 1988
1 1989
1 1990
1 1991
1 1992
1 1993
1 1994
1 1995
1 1996
1 1997
1 1998
1 1999
1 2000
1 2001
1 2002
1 2003
1 2004
1 2005
1 2006
1 2007
1 2008
1 2009
1 2010
1 2011
1 2012
1 2013
1 2014
1 2015
1 2016
1 2017
1 2018
1 2019
1 2020
1 2021
1 2022
1 2023
1 2024
1 2025
1 2026
1 2027
1 2028
1 2029
1 2030
1 2031
1 2032
1 2033
1 2034
1 2035
1 2036
1 2037
1 2038
1 2039
1 2040
1 2041
1 2042
1 2043
1 2044
1 2045
1 2046
1 2047
1 2048
1 2049
1 2050
1 2051
1 2052
1 2053
1 2054
1 2055
1 2056
1 2057
1 2058
1 2059
1 2060
1 2061
1 2062
1 2063
1 2064
1 2065
1 2066
1 2067
1 2068
1 2069
1 2070
1 2071
1 2072
1 2073
1 2074
1 2075
1 2076
1 2077
1 2078
1 2079
1 2080
1 2081
1 2082
1 2083
1 2084
1 2085
1 2086
1 2087
1 2088
1 2089
1 2090
1 2091
1 2092
1 2093
1 2094
1 2095
1 2096
1 2097
1 2098
1 2099
1 2100
1 2101
1 2102
1 2103
1 2104
1 2105
1 2106
1 2107
1 2108
1 2109
1 2110
1 2111
1 2112
1 2113
1 2114
1 2115
1 2116
1 2117
1 2118
1 2119
1 2120
1 2121
1 2122
1 2123
1 2124
1 2125
1 2126
1 2127
1 2128
1 2129
1 2130
1 2131
1 2132
1 2133
1 2134
1 2135
1 2136
1 2137
1 2138
1 2139
1 2140
1 2141
1 2142
1 2143
1 2144
1 2145
1 2146
1 2147
1 2148
1 2149
1 2150
1 2151
1 2152
1 2153
1 2154
1 2155
1 2156
1 2157
1 2158
1 2159
1 2160
1 2161
1 2162
1 2163
1 2164
1 2165
1 2166
1 2167
1 2168
1 2169
1 2170
1 2171
1 2172
1 2173
1 2174
1 2175
1 2176
1 2177
1 2178
1 2179
1 2180
1 2181
1 2182
1 2183
1 2184
1 2185
1 2186
1 2187
1 2188
1 2189
1 2190
1 2191
1 2192
1 2193
1 2194
1 2195
1 2196
1 2197
1 2198
1 2199
1 2200
1 2201
1 2202
1 2203
1 2204
1 2205
1 2206
1 2207
1 2208
1 2209
1 2210
1 2211
1 2212
1 2213
1 2214
1 2215
1 2216
1 2217
1 2218
1 2219
1 2220
1 2221
1 2222
1 2223
1 2224
1 2225
1 2226
1 2227
1 2228
1 2229
1 2230
1 2231
1 2232
1 2233
1 2234
1 2235
1 2236
1 2237
1 2238
1 2239
1 2240
1 2241
1 2242
1 2243
1 2244
1 2245
1 2246
1 2247
1 2248
1 2249
1 2250
1 2251
1 2252
1 2253
1 2254
1 2255
1 2256
1 2257
1 2258
1 2259
1 2260
1 2261
1 2262
1 2263
1 2264
1 2265
1 2266
1 2267
1 2268
1 2269
1 2270
1 2271
1 2272
1 2273
1 2274
1 2275
1 2276
1 2277
1 2278
1 2279
1 2280
1 2281
1 2282
1 2283
1 2284
1 2285
1 2286
1 2287
1 2288
1 2289
1 2290
1 2291
1 2292
1 2293
1 2294
1 2295
1 2296
1 2297
1 2298
1 2299
1 2300
1 2301
1 2302
1 2303
1 2304
1 2305
1 2306
1 2307
1 2308
1 2309
1 2310
1 2311
1 2312
1 2313
1 2314
1 2315
1 2316
1 2317
1 2318
1 2319
1 2320
1 2321
1 2322
1 2323
1 2324
1 2325
1 2326
1 2327
1 2328
1 2329
1 2330
1 2331
1 2332
1 2333
1 2334
1 2335
1 2336
1 2337
1 2338
1 2339
1 2340
1 2341
1 2342
1 2343
1 2344
1 2345
1 2346
1 2347
1 2348
1 2349
1 2350
1 2351
1 2352
1 2353
1 2354
1 2355
1 2356
1 2357
1 2358
1 2359
1 2360
1 2361
1 2362
1 2363
1 2364
1 2365
1 2366
1 2367
1 2368
1 2369
1 2370
1 2371
1 2372
1 2373
1 2374
1 2375
1 2376
1 2377
1 2378
1 2379
1 2380
1 2381
1 2382
1 2383
1 2384
1 2385
1 2386
1 2387
1 2388
1 2389
1 2390
1 2391
1 2392
1 2393
1 2394
1 2395
1 2396
1 2397
1 2398
1 2399
1 2400
1 2401
1 2402
1 2403
1 2404
1 2405
1 2406
1 2407
1 2408
1 2409
1 2410
1 2411
1 2412
1 2413
1 2414
1 2415
1 2416
1 2417
1 2418
1 2419
1 2420
1 2421
1 2422
1 2423
1 2424
1 2425
1 2426
1 2427
1 2428
1 2429
1 2430
1 2431
1 2432
1 2433
1 2434
1 2435
1 2436
1 2437
1 2438
1 2439
1 2440
1 2441
1 2442
1 2443
1 2444
1 2445
1 2446
1 2447
1 2448
1 2449
1 2450
1 2451
1 2452
1 2453
1 2454
1 2455
1 2456
1 2457
1 2458
1 2459
1 2460
1 2461
1 2462
1 2463
1 2465
1 2466
1 2467
1 2468
1 2469
1 2470
1 2471
1 2472
1 2473
1 2474
1 2475
1 2476
1 2477
1 2478
1 2479
1 2480
1 2481
1 2482
1 2483
1 2484
1 2485
1 2486
1 2487
1 2488
1 2489
1 2490
1 2491
1 2492
1 2493
1 2494
1 2495
1 2496
1 2497
1 2498
1 2499
1 2500
1 2501
1 2502
1 2503
1 2504
1 2505
1 2506
1 2507
1 2508
1 2509
1 2510
1 2511
1 2512
1 2513
1 2514
1 2515
1 2516
1 2517
1 2518
1 2519
1 2520
1 2521
1 2522
1 2523
1 2524
1 2525
1 2526
1 2527
1 2528
1 2529
1 2530
1 2531
1 2532
1 2533
1 2534
1 2535
1 2536
1 2537
1 2538
1 2539
1 2540
1 2541
1 2542
1 2543
1 2544
1 2545
1 2546
1 2547
1 2548
1 2549
1 2550
1 2551
1 2552
1 2553
1 2554
1 2555
1 2556
1 2557
1 2558
1 2559
1 2560
1 2561
1 2562
1 2563
1 2564
1 2565
1 2566
1 2567
1 2568
1 2569
1 2570
1 2571
1 2572
1 2573
1 2574
1 2575
1 2576
1 2577
1 2578
1 2579
1 2580
1 2581
1 2582
1 2583
1 2584
1 2585
1 2586
1 2587
1 2588
1 2589
1 2590
1 2591
1 2592
1 2593
1 2594
1 2595
1 2596
1 2597
1 2598
1 2599
1 2600
1 2601
1 2602
1 2603
1 2604
1 2605
1 2606
1 2607
1 2608
1 2609
1 2610
1 2613
1 2614
1 2615
1 2616
1 2617
1 2618
1 2619
1 2620
1 2621
1 2622
1 2623
1 2624
1 2625
1 2626
1 2627
1 2628
1 2629
1 2630
1 2631
1 2632
1 2633
1 2634
1 2635
1 2636
1 2637
1 2638
1 2639
1 2640
1 2641
1 2642
1 2643
1 2644
1 2645
1 2646
1 2647
1 2648
1 2649
1 2650
1 2651
1 2652
1 2653
1 2654
1 2655
1 2656
1 2657
1 2658
1 2659
1 2660
1 2661
1 2662
1 2663
1 2664
1 2665
1 2666
1 2667
1 2668
1 2669
1 2670
1 2671
1 2672
1 2673
1 2674
1 2675
1 2676
1 2677
1 2678
1 2679
1 2680
1 2681
1 2682
1 2683
1 2684
1 2685
1 2686
1 2687
1 2688
1 2689
1 2690
1 2691
1 2692
1 2693
1 2694
1 2695
1 2696
1 2697
1 2698
1 2699
1 2700
1 2701
1 2702
1 2703
1 2704
1 2705
1 2706
1 2707
1 2708
1 2709
1 2710
1 2711
1 2712
1 2713
1 2714
1 2715
1 2716
1 2717
1 2718
1 2719
1 2720
1 2721
1 2722
1 2723
1 2724
1 2725
1 2726
1 2727
1 2728
1 2729
1 2730
1 2731
1 2732
1 2733
1 2734
1 2735
1 2736
1 2737
1 2738
1 2739
1 2740
1 2741
1 2742
1 2743
1 2744
1 2745
1 2746
1 2747
1 2748
1 2749
1 2750
1 2751
1 2752
1 2753
1 2754
1 2755
1 2756
1 2757
1 2758
1 2759
1 2760
1 2761
1 2762
1 2763
1 2764
1 2765
1 2766
1 2767
1 2768
1 2769
1 2770
1 2771
1 2772
1 2773
1 2774
1 2775
1 2776
1 2777
1 2778
1 2779
1 2780
1 2781
1 2782
1 2783
1 2784
1 2785
1 2786
1 2787
1 2788
1 2789
1 2790
1 2791
1 2792
1 2793
1 2794
1 2795
1 2796
1 2797
1 2798
1 2799
1 2800
1 2801
1 2802
1 2803
1 2804
1 2805
1 2806
1 2807
1 2808
1 2809
1 2810
1 2811
1 2812
1 2813
1 2814
1 2815
1 2816
1 2817
1 2818
1 2819
1 2820
1 2821
1 2822
1 2823
1 2824
1 2825
1 2826
1 2827
1 2828
1 2829
1 2830
1 2831
1 2832
1 2833
1 2834
1 2835
1 2836
1 2837
1 2838
1 2839
1 2840
1 2841
1 2842
1 2843
1 2844
1 2845
1 2846
1 2847
1 2848
1 2849
1 2850
1 2851
1 2852
1 2853
1 2854
1 2855
1 2856
1 2857
1 2858
1 2859
1 2860
1 2861
1 2862
1 2863
1 2864
1 2865
1 2866
1 2867
1 2868
1 2869
1 2870
1 2871
1 2872
1 2873
1 2874
1 2875
1 2876
1 2877
1 2878
1 2879
1 2880
1 2881
1 2882
1 2883
1 2884
1 2885
1 2886
1 2887
1 2888
1 2889
1 2890
1 2891
1 2892
1 2893
1 2894
1 2895
1 2896
1 2897
1 2898
1 2899
1 2900
1 2901
1 2902
1 2903
1 2904
1 2905
1 2906
1 2907
1 2908
1 2909
1 2910
1 2911
1 2912
1 2913
1 2914
1 2915
1 2916
1 2917
1 2918
1433 2611
1434 2611
1435 2611
1436 2611
1437 2611
1438 2611
1439 2611
1440 2611
1441 2611
1442 2611
1443 2611
1444 2611
1445 2611
1446 2611
1447 2611
1448 2611
1449 2611
1450 2611
1451 2611
1452 2611
1453 2611
1454 2611
1455 2611
1456 2611
1457 2611
1458 2611
1459 2611
1460 2611
1461 2611
1462 2611
1463 2611
1464 2611
1465 2611
1466 2611
1467 2611
1468 2611
1469 2611
1470 2611
1471 2611
1472 2611
1473 2611
1474 2611
1475 2611
1476 2611
1477 2611
1478 2611
1479 2611
1480 2611
1481 2611
1482 2611
1483 2611
1484 2611
1485 2611
